p cnf 102 2913
-1 -7 0
-1 -8 0
-1 -9 0
-1 -10 0
-1 -11 0
-1 -12 0
-2 -7 0
-2 -8 0
-2 -9 0
-2 -10 0
-2 -11 0
-2 -12 0
-3 -7 0
-3 -8 0
-3 -9 0
-3 -10 0
-3 -11 0
-3 -12 0
-4 -7 0
-4 -8 0
-4 -9 0
-4 -10 0
-4 -11 0
-4 -12 0
-5 -7 0
-5 -8 0
-5 -9 0
-5 -10 0
-5 -11 0
-5 -12 0
-6 -7 0
-6 -8 0
-6 -9 0
-6 -10 0
-6 -11 0
-6 -12 0
-1 -25 0
-1 -26 0
-1 -27 0
-1 -28 0
-1 -29 0
-1 -30 0
-2 -25 0
-2 -26 0
-2 -27 0
-2 -28 0
-2 -29 0
-2 -30 0
-3 -25 0
-3 -26 0
-3 -27 0
-3 -28 0
-3 -29 0
-3 -30 0
-4 -25 0
-4 -26 0
-4 -27 0
-4 -28 0
-4 -29 0
-4 -30 0
-5 -25 0
-5 -26 0
-5 -27 0
-5 -28 0
-5 -29 0
-5 -30 0
-6 -25 0
-6 -26 0
-6 -27 0
-6 -28 0
-6 -29 0
-6 -30 0
-1 -31 0
-1 -32 0
-1 -33 0
-1 -34 0
-1 -35 0
-1 -36 0
-2 -31 0
-2 -32 0
-2 -33 0
-2 -34 0
-2 -35 0
-2 -36 0
-3 -31 0
-3 -32 0
-3 -33 0
-3 -34 0
-3 -35 0
-3 -36 0
-4 -31 0
-4 -32 0
-4 -33 0
-4 -34 0
-4 -35 0
-4 -36 0
-5 -31 0
-5 -32 0
-5 -33 0
-5 -34 0
-5 -35 0
-5 -36 0
-6 -31 0
-6 -32 0
-6 -33 0
-6 -34 0
-6 -35 0
-6 -36 0
-1 -37 0
-1 -38 0
-1 -39 0
-1 -40 0
-1 -41 0
-1 -42 0
-2 -37 0
-2 -38 0
-2 -39 0
-2 -40 0
-2 -41 0
-2 -42 0
-3 -37 0
-3 -38 0
-3 -39 0
-3 -40 0
-3 -41 0
-3 -42 0
-4 -37 0
-4 -38 0
-4 -39 0
-4 -40 0
-4 -41 0
-4 -42 0
-5 -37 0
-5 -38 0
-5 -39 0
-5 -40 0
-5 -41 0
-5 -42 0
-6 -37 0
-6 -38 0
-6 -39 0
-6 -40 0
-6 -41 0
-6 -42 0
-1 -91 0
-1 -92 0
-1 -93 0
-1 -94 0
-1 -95 0
-1 -96 0
-2 -91 0
-2 -92 0
-2 -93 0
-2 -94 0
-2 -95 0
-2 -96 0
-3 -91 0
-3 -92 0
-3 -93 0
-3 -94 0
-3 -95 0
-3 -96 0
-4 -91 0
-4 -92 0
-4 -93 0
-4 -94 0
-4 -95 0
-4 -96 0
-5 -91 0
-5 -92 0
-5 -93 0
-5 -94 0
-5 -95 0
-5 -96 0
-6 -91 0
-6 -92 0
-6 -93 0
-6 -94 0
-6 -95 0
-6 -96 0
-1 -97 0
-1 -98 0
-1 -99 0
-1 -100 0
-1 -101 0
-1 -102 0
-2 -97 0
-2 -98 0
-2 -99 0
-2 -100 0
-2 -101 0
-2 -102 0
-3 -97 0
-3 -98 0
-3 -99 0
-3 -100 0
-3 -101 0
-3 -102 0
-4 -97 0
-4 -98 0
-4 -99 0
-4 -100 0
-4 -101 0
-4 -102 0
-5 -97 0
-5 -98 0
-5 -99 0
-5 -100 0
-5 -101 0
-5 -102 0
-6 -97 0
-6 -98 0
-6 -99 0
-6 -100 0
-6 -101 0
-6 -102 0
-7 -19 0
-7 -20 0
-7 -21 0
-7 -22 0
-7 -23 0
-7 -24 0
-8 -19 0
-8 -20 0
-8 -21 0
-8 -22 0
-8 -23 0
-8 -24 0
-9 -19 0
-9 -20 0
-9 -21 0
-9 -22 0
-9 -23 0
-9 -24 0
-10 -19 0
-10 -20 0
-10 -21 0
-10 -22 0
-10 -23 0
-10 -24 0
-11 -19 0
-11 -20 0
-11 -21 0
-11 -22 0
-11 -23 0
-11 -24 0
-12 -19 0
-12 -20 0
-12 -21 0
-12 -22 0
-12 -23 0
-12 -24 0
-7 -43 0
-7 -44 0
-7 -45 0
-7 -46 0
-7 -47 0
-7 -48 0
-8 -43 0
-8 -44 0
-8 -45 0
-8 -46 0
-8 -47 0
-8 -48 0
-9 -43 0
-9 -44 0
-9 -45 0
-9 -46 0
-9 -47 0
-9 -48 0
-10 -43 0
-10 -44 0
-10 -45 0
-10 -46 0
-10 -47 0
-10 -48 0
-11 -43 0
-11 -44 0
-11 -45 0
-11 -46 0
-11 -47 0
-11 -48 0
-12 -43 0
-12 -44 0
-12 -45 0
-12 -46 0
-12 -47 0
-12 -48 0
-7 -49 0
-7 -50 0
-7 -51 0
-7 -52 0
-7 -53 0
-7 -54 0
-8 -49 0
-8 -50 0
-8 -51 0
-8 -52 0
-8 -53 0
-8 -54 0
-9 -49 0
-9 -50 0
-9 -51 0
-9 -52 0
-9 -53 0
-9 -54 0
-10 -49 0
-10 -50 0
-10 -51 0
-10 -52 0
-10 -53 0
-10 -54 0
-11 -49 0
-11 -50 0
-11 -51 0
-11 -52 0
-11 -53 0
-11 -54 0
-12 -49 0
-12 -50 0
-12 -51 0
-12 -52 0
-12 -53 0
-12 -54 0
-7 -61 0
-7 -62 0
-7 -63 0
-7 -64 0
-7 -65 0
-7 -66 0
-8 -61 0
-8 -62 0
-8 -63 0
-8 -64 0
-8 -65 0
-8 -66 0
-9 -61 0
-9 -62 0
-9 -63 0
-9 -64 0
-9 -65 0
-9 -66 0
-10 -61 0
-10 -62 0
-10 -63 0
-10 -64 0
-10 -65 0
-10 -66 0
-11 -61 0
-11 -62 0
-11 -63 0
-11 -64 0
-11 -65 0
-11 -66 0
-12 -61 0
-12 -62 0
-12 -63 0
-12 -64 0
-12 -65 0
-12 -66 0
-7 -73 0
-7 -74 0
-7 -75 0
-7 -76 0
-7 -77 0
-7 -78 0
-8 -73 0
-8 -74 0
-8 -75 0
-8 -76 0
-8 -77 0
-8 -78 0
-9 -73 0
-9 -74 0
-9 -75 0
-9 -76 0
-9 -77 0
-9 -78 0
-10 -73 0
-10 -74 0
-10 -75 0
-10 -76 0
-10 -77 0
-10 -78 0
-11 -73 0
-11 -74 0
-11 -75 0
-11 -76 0
-11 -77 0
-11 -78 0
-12 -73 0
-12 -74 0
-12 -75 0
-12 -76 0
-12 -77 0
-12 -78 0
-7 -91 0
-7 -92 0
-7 -93 0
-7 -94 0
-7 -95 0
-7 -96 0
-8 -91 0
-8 -92 0
-8 -93 0
-8 -94 0
-8 -95 0
-8 -96 0
-9 -91 0
-9 -92 0
-9 -93 0
-9 -94 0
-9 -95 0
-9 -96 0
-10 -91 0
-10 -92 0
-10 -93 0
-10 -94 0
-10 -95 0
-10 -96 0
-11 -91 0
-11 -92 0
-11 -93 0
-11 -94 0
-11 -95 0
-11 -96 0
-12 -91 0
-12 -92 0
-12 -93 0
-12 -94 0
-12 -95 0
-12 -96 0
-13 -19 0
-13 -20 0
-13 -21 0
-13 -22 0
-13 -23 0
-13 -24 0
-14 -19 0
-14 -20 0
-14 -21 0
-14 -22 0
-14 -23 0
-14 -24 0
-15 -19 0
-15 -20 0
-15 -21 0
-15 -22 0
-15 -23 0
-15 -24 0
-16 -19 0
-16 -20 0
-16 -21 0
-16 -22 0
-16 -23 0
-16 -24 0
-17 -19 0
-17 -20 0
-17 -21 0
-17 -22 0
-17 -23 0
-17 -24 0
-18 -19 0
-18 -20 0
-18 -21 0
-18 -22 0
-18 -23 0
-18 -24 0
-13 -31 0
-13 -32 0
-13 -33 0
-13 -34 0
-13 -35 0
-13 -36 0
-14 -31 0
-14 -32 0
-14 -33 0
-14 -34 0
-14 -35 0
-14 -36 0
-15 -31 0
-15 -32 0
-15 -33 0
-15 -34 0
-15 -35 0
-15 -36 0
-16 -31 0
-16 -32 0
-16 -33 0
-16 -34 0
-16 -35 0
-16 -36 0
-17 -31 0
-17 -32 0
-17 -33 0
-17 -34 0
-17 -35 0
-17 -36 0
-18 -31 0
-18 -32 0
-18 -33 0
-18 -34 0
-18 -35 0
-18 -36 0
-13 -55 0
-13 -56 0
-13 -57 0
-13 -58 0
-13 -59 0
-13 -60 0
-14 -55 0
-14 -56 0
-14 -57 0
-14 -58 0
-14 -59 0
-14 -60 0
-15 -55 0
-15 -56 0
-15 -57 0
-15 -58 0
-15 -59 0
-15 -60 0
-16 -55 0
-16 -56 0
-16 -57 0
-16 -58 0
-16 -59 0
-16 -60 0
-17 -55 0
-17 -56 0
-17 -57 0
-17 -58 0
-17 -59 0
-17 -60 0
-18 -55 0
-18 -56 0
-18 -57 0
-18 -58 0
-18 -59 0
-18 -60 0
-13 -85 0
-13 -86 0
-13 -87 0
-13 -88 0
-13 -89 0
-13 -90 0
-14 -85 0
-14 -86 0
-14 -87 0
-14 -88 0
-14 -89 0
-14 -90 0
-15 -85 0
-15 -86 0
-15 -87 0
-15 -88 0
-15 -89 0
-15 -90 0
-16 -85 0
-16 -86 0
-16 -87 0
-16 -88 0
-16 -89 0
-16 -90 0
-17 -85 0
-17 -86 0
-17 -87 0
-17 -88 0
-17 -89 0
-17 -90 0
-18 -85 0
-18 -86 0
-18 -87 0
-18 -88 0
-18 -89 0
-18 -90 0
-13 -91 0
-13 -92 0
-13 -93 0
-13 -94 0
-13 -95 0
-13 -96 0
-14 -91 0
-14 -92 0
-14 -93 0
-14 -94 0
-14 -95 0
-14 -96 0
-15 -91 0
-15 -92 0
-15 -93 0
-15 -94 0
-15 -95 0
-15 -96 0
-16 -91 0
-16 -92 0
-16 -93 0
-16 -94 0
-16 -95 0
-16 -96 0
-17 -91 0
-17 -92 0
-17 -93 0
-17 -94 0
-17 -95 0
-17 -96 0
-18 -91 0
-18 -92 0
-18 -93 0
-18 -94 0
-18 -95 0
-18 -96 0
-13 -97 0
-13 -98 0
-13 -99 0
-13 -100 0
-13 -101 0
-13 -102 0
-14 -97 0
-14 -98 0
-14 -99 0
-14 -100 0
-14 -101 0
-14 -102 0
-15 -97 0
-15 -98 0
-15 -99 0
-15 -100 0
-15 -101 0
-15 -102 0
-16 -97 0
-16 -98 0
-16 -99 0
-16 -100 0
-16 -101 0
-16 -102 0
-17 -97 0
-17 -98 0
-17 -99 0
-17 -100 0
-17 -101 0
-17 -102 0
-18 -97 0
-18 -98 0
-18 -99 0
-18 -100 0
-18 -101 0
-18 -102 0
-19 -31 0
-19 -32 0
-19 -33 0
-19 -34 0
-19 -35 0
-19 -36 0
-20 -31 0
-20 -32 0
-20 -33 0
-20 -34 0
-20 -35 0
-20 -36 0
-21 -31 0
-21 -32 0
-21 -33 0
-21 -34 0
-21 -35 0
-21 -36 0
-22 -31 0
-22 -32 0
-22 -33 0
-22 -34 0
-22 -35 0
-22 -36 0
-23 -31 0
-23 -32 0
-23 -33 0
-23 -34 0
-23 -35 0
-23 -36 0
-24 -31 0
-24 -32 0
-24 -33 0
-24 -34 0
-24 -35 0
-24 -36 0
-19 -49 0
-19 -50 0
-19 -51 0
-19 -52 0
-19 -53 0
-19 -54 0
-20 -49 0
-20 -50 0
-20 -51 0
-20 -52 0
-20 -53 0
-20 -54 0
-21 -49 0
-21 -50 0
-21 -51 0
-21 -52 0
-21 -53 0
-21 -54 0
-22 -49 0
-22 -50 0
-22 -51 0
-22 -52 0
-22 -53 0
-22 -54 0
-23 -49 0
-23 -50 0
-23 -51 0
-23 -52 0
-23 -53 0
-23 -54 0
-24 -49 0
-24 -50 0
-24 -51 0
-24 -52 0
-24 -53 0
-24 -54 0
-19 -67 0
-19 -68 0
-19 -69 0
-19 -70 0
-19 -71 0
-19 -72 0
-20 -67 0
-20 -68 0
-20 -69 0
-20 -70 0
-20 -71 0
-20 -72 0
-21 -67 0
-21 -68 0
-21 -69 0
-21 -70 0
-21 -71 0
-21 -72 0
-22 -67 0
-22 -68 0
-22 -69 0
-22 -70 0
-22 -71 0
-22 -72 0
-23 -67 0
-23 -68 0
-23 -69 0
-23 -70 0
-23 -71 0
-23 -72 0
-24 -67 0
-24 -68 0
-24 -69 0
-24 -70 0
-24 -71 0
-24 -72 0
-19 -79 0
-19 -80 0
-19 -81 0
-19 -82 0
-19 -83 0
-19 -84 0
-20 -79 0
-20 -80 0
-20 -81 0
-20 -82 0
-20 -83 0
-20 -84 0
-21 -79 0
-21 -80 0
-21 -81 0
-21 -82 0
-21 -83 0
-21 -84 0
-22 -79 0
-22 -80 0
-22 -81 0
-22 -82 0
-22 -83 0
-22 -84 0
-23 -79 0
-23 -80 0
-23 -81 0
-23 -82 0
-23 -83 0
-23 -84 0
-24 -79 0
-24 -80 0
-24 -81 0
-24 -82 0
-24 -83 0
-24 -84 0
-25 -31 0
-25 -32 0
-25 -33 0
-25 -34 0
-25 -35 0
-25 -36 0
-26 -31 0
-26 -32 0
-26 -33 0
-26 -34 0
-26 -35 0
-26 -36 0
-27 -31 0
-27 -32 0
-27 -33 0
-27 -34 0
-27 -35 0
-27 -36 0
-28 -31 0
-28 -32 0
-28 -33 0
-28 -34 0
-28 -35 0
-28 -36 0
-29 -31 0
-29 -32 0
-29 -33 0
-29 -34 0
-29 -35 0
-29 -36 0
-30 -31 0
-30 -32 0
-30 -33 0
-30 -34 0
-30 -35 0
-30 -36 0
-25 -49 0
-25 -50 0
-25 -51 0
-25 -52 0
-25 -53 0
-25 -54 0
-26 -49 0
-26 -50 0
-26 -51 0
-26 -52 0
-26 -53 0
-26 -54 0
-27 -49 0
-27 -50 0
-27 -51 0
-27 -52 0
-27 -53 0
-27 -54 0
-28 -49 0
-28 -50 0
-28 -51 0
-28 -52 0
-28 -53 0
-28 -54 0
-29 -49 0
-29 -50 0
-29 -51 0
-29 -52 0
-29 -53 0
-29 -54 0
-30 -49 0
-30 -50 0
-30 -51 0
-30 -52 0
-30 -53 0
-30 -54 0
-25 -55 0
-25 -56 0
-25 -57 0
-25 -58 0
-25 -59 0
-25 -60 0
-26 -55 0
-26 -56 0
-26 -57 0
-26 -58 0
-26 -59 0
-26 -60 0
-27 -55 0
-27 -56 0
-27 -57 0
-27 -58 0
-27 -59 0
-27 -60 0
-28 -55 0
-28 -56 0
-28 -57 0
-28 -58 0
-28 -59 0
-28 -60 0
-29 -55 0
-29 -56 0
-29 -57 0
-29 -58 0
-29 -59 0
-29 -60 0
-30 -55 0
-30 -56 0
-30 -57 0
-30 -58 0
-30 -59 0
-30 -60 0
-25 -73 0
-25 -74 0
-25 -75 0
-25 -76 0
-25 -77 0
-25 -78 0
-26 -73 0
-26 -74 0
-26 -75 0
-26 -76 0
-26 -77 0
-26 -78 0
-27 -73 0
-27 -74 0
-27 -75 0
-27 -76 0
-27 -77 0
-27 -78 0
-28 -73 0
-28 -74 0
-28 -75 0
-28 -76 0
-28 -77 0
-28 -78 0
-29 -73 0
-29 -74 0
-29 -75 0
-29 -76 0
-29 -77 0
-29 -78 0
-30 -73 0
-30 -74 0
-30 -75 0
-30 -76 0
-30 -77 0
-30 -78 0
-25 -85 0
-25 -86 0
-25 -87 0
-25 -88 0
-25 -89 0
-25 -90 0
-26 -85 0
-26 -86 0
-26 -87 0
-26 -88 0
-26 -89 0
-26 -90 0
-27 -85 0
-27 -86 0
-27 -87 0
-27 -88 0
-27 -89 0
-27 -90 0
-28 -85 0
-28 -86 0
-28 -87 0
-28 -88 0
-28 -89 0
-28 -90 0
-29 -85 0
-29 -86 0
-29 -87 0
-29 -88 0
-29 -89 0
-29 -90 0
-30 -85 0
-30 -86 0
-30 -87 0
-30 -88 0
-30 -89 0
-30 -90 0
-25 -91 0
-25 -92 0
-25 -93 0
-25 -94 0
-25 -95 0
-25 -96 0
-26 -91 0
-26 -92 0
-26 -93 0
-26 -94 0
-26 -95 0
-26 -96 0
-27 -91 0
-27 -92 0
-27 -93 0
-27 -94 0
-27 -95 0
-27 -96 0
-28 -91 0
-28 -92 0
-28 -93 0
-28 -94 0
-28 -95 0
-28 -96 0
-29 -91 0
-29 -92 0
-29 -93 0
-29 -94 0
-29 -95 0
-29 -96 0
-30 -91 0
-30 -92 0
-30 -93 0
-30 -94 0
-30 -95 0
-30 -96 0
-25 -97 0
-25 -98 0
-25 -99 0
-25 -100 0
-25 -101 0
-25 -102 0
-26 -97 0
-26 -98 0
-26 -99 0
-26 -100 0
-26 -101 0
-26 -102 0
-27 -97 0
-27 -98 0
-27 -99 0
-27 -100 0
-27 -101 0
-27 -102 0
-28 -97 0
-28 -98 0
-28 -99 0
-28 -100 0
-28 -101 0
-28 -102 0
-29 -97 0
-29 -98 0
-29 -99 0
-29 -100 0
-29 -101 0
-29 -102 0
-30 -97 0
-30 -98 0
-30 -99 0
-30 -100 0
-30 -101 0
-30 -102 0
-31 -37 0
-31 -38 0
-31 -39 0
-31 -40 0
-31 -41 0
-31 -42 0
-32 -37 0
-32 -38 0
-32 -39 0
-32 -40 0
-32 -41 0
-32 -42 0
-33 -37 0
-33 -38 0
-33 -39 0
-33 -40 0
-33 -41 0
-33 -42 0
-34 -37 0
-34 -38 0
-34 -39 0
-34 -40 0
-34 -41 0
-34 -42 0
-35 -37 0
-35 -38 0
-35 -39 0
-35 -40 0
-35 -41 0
-35 -42 0
-36 -37 0
-36 -38 0
-36 -39 0
-36 -40 0
-36 -41 0
-36 -42 0
-31 -49 0
-31 -50 0
-31 -51 0
-31 -52 0
-31 -53 0
-31 -54 0
-32 -49 0
-32 -50 0
-32 -51 0
-32 -52 0
-32 -53 0
-32 -54 0
-33 -49 0
-33 -50 0
-33 -51 0
-33 -52 0
-33 -53 0
-33 -54 0
-34 -49 0
-34 -50 0
-34 -51 0
-34 -52 0
-34 -53 0
-34 -54 0
-35 -49 0
-35 -50 0
-35 -51 0
-35 -52 0
-35 -53 0
-35 -54 0
-36 -49 0
-36 -50 0
-36 -51 0
-36 -52 0
-36 -53 0
-36 -54 0
-31 -67 0
-31 -68 0
-31 -69 0
-31 -70 0
-31 -71 0
-31 -72 0
-32 -67 0
-32 -68 0
-32 -69 0
-32 -70 0
-32 -71 0
-32 -72 0
-33 -67 0
-33 -68 0
-33 -69 0
-33 -70 0
-33 -71 0
-33 -72 0
-34 -67 0
-34 -68 0
-34 -69 0
-34 -70 0
-34 -71 0
-34 -72 0
-35 -67 0
-35 -68 0
-35 -69 0
-35 -70 0
-35 -71 0
-35 -72 0
-36 -67 0
-36 -68 0
-36 -69 0
-36 -70 0
-36 -71 0
-36 -72 0
-37 -73 0
-37 -74 0
-37 -75 0
-37 -76 0
-37 -77 0
-37 -78 0
-38 -73 0
-38 -74 0
-38 -75 0
-38 -76 0
-38 -77 0
-38 -78 0
-39 -73 0
-39 -74 0
-39 -75 0
-39 -76 0
-39 -77 0
-39 -78 0
-40 -73 0
-40 -74 0
-40 -75 0
-40 -76 0
-40 -77 0
-40 -78 0
-41 -73 0
-41 -74 0
-41 -75 0
-41 -76 0
-41 -77 0
-41 -78 0
-42 -73 0
-42 -74 0
-42 -75 0
-42 -76 0
-42 -77 0
-42 -78 0
-37 -91 0
-37 -92 0
-37 -93 0
-37 -94 0
-37 -95 0
-37 -96 0
-38 -91 0
-38 -92 0
-38 -93 0
-38 -94 0
-38 -95 0
-38 -96 0
-39 -91 0
-39 -92 0
-39 -93 0
-39 -94 0
-39 -95 0
-39 -96 0
-40 -91 0
-40 -92 0
-40 -93 0
-40 -94 0
-40 -95 0
-40 -96 0
-41 -91 0
-41 -92 0
-41 -93 0
-41 -94 0
-41 -95 0
-41 -96 0
-42 -91 0
-42 -92 0
-42 -93 0
-42 -94 0
-42 -95 0
-42 -96 0
-43 -55 0
-43 -56 0
-43 -57 0
-43 -58 0
-43 -59 0
-43 -60 0
-44 -55 0
-44 -56 0
-44 -57 0
-44 -58 0
-44 -59 0
-44 -60 0
-45 -55 0
-45 -56 0
-45 -57 0
-45 -58 0
-45 -59 0
-45 -60 0
-46 -55 0
-46 -56 0
-46 -57 0
-46 -58 0
-46 -59 0
-46 -60 0
-47 -55 0
-47 -56 0
-47 -57 0
-47 -58 0
-47 -59 0
-47 -60 0
-48 -55 0
-48 -56 0
-48 -57 0
-48 -58 0
-48 -59 0
-48 -60 0
-43 -67 0
-43 -68 0
-43 -69 0
-43 -70 0
-43 -71 0
-43 -72 0
-44 -67 0
-44 -68 0
-44 -69 0
-44 -70 0
-44 -71 0
-44 -72 0
-45 -67 0
-45 -68 0
-45 -69 0
-45 -70 0
-45 -71 0
-45 -72 0
-46 -67 0
-46 -68 0
-46 -69 0
-46 -70 0
-46 -71 0
-46 -72 0
-47 -67 0
-47 -68 0
-47 -69 0
-47 -70 0
-47 -71 0
-47 -72 0
-48 -67 0
-48 -68 0
-48 -69 0
-48 -70 0
-48 -71 0
-48 -72 0
-43 -79 0
-43 -80 0
-43 -81 0
-43 -82 0
-43 -83 0
-43 -84 0
-44 -79 0
-44 -80 0
-44 -81 0
-44 -82 0
-44 -83 0
-44 -84 0
-45 -79 0
-45 -80 0
-45 -81 0
-45 -82 0
-45 -83 0
-45 -84 0
-46 -79 0
-46 -80 0
-46 -81 0
-46 -82 0
-46 -83 0
-46 -84 0
-47 -79 0
-47 -80 0
-47 -81 0
-47 -82 0
-47 -83 0
-47 -84 0
-48 -79 0
-48 -80 0
-48 -81 0
-48 -82 0
-48 -83 0
-48 -84 0
-43 -85 0
-43 -86 0
-43 -87 0
-43 -88 0
-43 -89 0
-43 -90 0
-44 -85 0
-44 -86 0
-44 -87 0
-44 -88 0
-44 -89 0
-44 -90 0
-45 -85 0
-45 -86 0
-45 -87 0
-45 -88 0
-45 -89 0
-45 -90 0
-46 -85 0
-46 -86 0
-46 -87 0
-46 -88 0
-46 -89 0
-46 -90 0
-47 -85 0
-47 -86 0
-47 -87 0
-47 -88 0
-47 -89 0
-47 -90 0
-48 -85 0
-48 -86 0
-48 -87 0
-48 -88 0
-48 -89 0
-48 -90 0
-43 -91 0
-43 -92 0
-43 -93 0
-43 -94 0
-43 -95 0
-43 -96 0
-44 -91 0
-44 -92 0
-44 -93 0
-44 -94 0
-44 -95 0
-44 -96 0
-45 -91 0
-45 -92 0
-45 -93 0
-45 -94 0
-45 -95 0
-45 -96 0
-46 -91 0
-46 -92 0
-46 -93 0
-46 -94 0
-46 -95 0
-46 -96 0
-47 -91 0
-47 -92 0
-47 -93 0
-47 -94 0
-47 -95 0
-47 -96 0
-48 -91 0
-48 -92 0
-48 -93 0
-48 -94 0
-48 -95 0
-48 -96 0
-49 -97 0
-49 -98 0
-49 -99 0
-49 -100 0
-49 -101 0
-49 -102 0
-50 -97 0
-50 -98 0
-50 -99 0
-50 -100 0
-50 -101 0
-50 -102 0
-51 -97 0
-51 -98 0
-51 -99 0
-51 -100 0
-51 -101 0
-51 -102 0
-52 -97 0
-52 -98 0
-52 -99 0
-52 -100 0
-52 -101 0
-52 -102 0
-53 -97 0
-53 -98 0
-53 -99 0
-53 -100 0
-53 -101 0
-53 -102 0
-54 -97 0
-54 -98 0
-54 -99 0
-54 -100 0
-54 -101 0
-54 -102 0
-55 -61 0
-55 -62 0
-55 -63 0
-55 -64 0
-55 -65 0
-55 -66 0
-56 -61 0
-56 -62 0
-56 -63 0
-56 -64 0
-56 -65 0
-56 -66 0
-57 -61 0
-57 -62 0
-57 -63 0
-57 -64 0
-57 -65 0
-57 -66 0
-58 -61 0
-58 -62 0
-58 -63 0
-58 -64 0
-58 -65 0
-58 -66 0
-59 -61 0
-59 -62 0
-59 -63 0
-59 -64 0
-59 -65 0
-59 -66 0
-60 -61 0
-60 -62 0
-60 -63 0
-60 -64 0
-60 -65 0
-60 -66 0
-55 -67 0
-55 -68 0
-55 -69 0
-55 -70 0
-55 -71 0
-55 -72 0
-56 -67 0
-56 -68 0
-56 -69 0
-56 -70 0
-56 -71 0
-56 -72 0
-57 -67 0
-57 -68 0
-57 -69 0
-57 -70 0
-57 -71 0
-57 -72 0
-58 -67 0
-58 -68 0
-58 -69 0
-58 -70 0
-58 -71 0
-58 -72 0
-59 -67 0
-59 -68 0
-59 -69 0
-59 -70 0
-59 -71 0
-59 -72 0
-60 -67 0
-60 -68 0
-60 -69 0
-60 -70 0
-60 -71 0
-60 -72 0
-55 -79 0
-55 -80 0
-55 -81 0
-55 -82 0
-55 -83 0
-55 -84 0
-56 -79 0
-56 -80 0
-56 -81 0
-56 -82 0
-56 -83 0
-56 -84 0
-57 -79 0
-57 -80 0
-57 -81 0
-57 -82 0
-57 -83 0
-57 -84 0
-58 -79 0
-58 -80 0
-58 -81 0
-58 -82 0
-58 -83 0
-58 -84 0
-59 -79 0
-59 -80 0
-59 -81 0
-59 -82 0
-59 -83 0
-59 -84 0
-60 -79 0
-60 -80 0
-60 -81 0
-60 -82 0
-60 -83 0
-60 -84 0
-55 -91 0
-55 -92 0
-55 -93 0
-55 -94 0
-55 -95 0
-55 -96 0
-56 -91 0
-56 -92 0
-56 -93 0
-56 -94 0
-56 -95 0
-56 -96 0
-57 -91 0
-57 -92 0
-57 -93 0
-57 -94 0
-57 -95 0
-57 -96 0
-58 -91 0
-58 -92 0
-58 -93 0
-58 -94 0
-58 -95 0
-58 -96 0
-59 -91 0
-59 -92 0
-59 -93 0
-59 -94 0
-59 -95 0
-59 -96 0
-60 -91 0
-60 -92 0
-60 -93 0
-60 -94 0
-60 -95 0
-60 -96 0
-55 -97 0
-55 -98 0
-55 -99 0
-55 -100 0
-55 -101 0
-55 -102 0
-56 -97 0
-56 -98 0
-56 -99 0
-56 -100 0
-56 -101 0
-56 -102 0
-57 -97 0
-57 -98 0
-57 -99 0
-57 -100 0
-57 -101 0
-57 -102 0
-58 -97 0
-58 -98 0
-58 -99 0
-58 -100 0
-58 -101 0
-58 -102 0
-59 -97 0
-59 -98 0
-59 -99 0
-59 -100 0
-59 -101 0
-59 -102 0
-60 -97 0
-60 -98 0
-60 -99 0
-60 -100 0
-60 -101 0
-60 -102 0
-61 -73 0
-61 -74 0
-61 -75 0
-61 -76 0
-61 -77 0
-61 -78 0
-62 -73 0
-62 -74 0
-62 -75 0
-62 -76 0
-62 -77 0
-62 -78 0
-63 -73 0
-63 -74 0
-63 -75 0
-63 -76 0
-63 -77 0
-63 -78 0
-64 -73 0
-64 -74 0
-64 -75 0
-64 -76 0
-64 -77 0
-64 -78 0
-65 -73 0
-65 -74 0
-65 -75 0
-65 -76 0
-65 -77 0
-65 -78 0
-66 -73 0
-66 -74 0
-66 -75 0
-66 -76 0
-66 -77 0
-66 -78 0
-61 -79 0
-61 -80 0
-61 -81 0
-61 -82 0
-61 -83 0
-61 -84 0
-62 -79 0
-62 -80 0
-62 -81 0
-62 -82 0
-62 -83 0
-62 -84 0
-63 -79 0
-63 -80 0
-63 -81 0
-63 -82 0
-63 -83 0
-63 -84 0
-64 -79 0
-64 -80 0
-64 -81 0
-64 -82 0
-64 -83 0
-64 -84 0
-65 -79 0
-65 -80 0
-65 -81 0
-65 -82 0
-65 -83 0
-65 -84 0
-66 -79 0
-66 -80 0
-66 -81 0
-66 -82 0
-66 -83 0
-66 -84 0
-67 -73 0
-67 -74 0
-67 -75 0
-67 -76 0
-67 -77 0
-67 -78 0
-68 -73 0
-68 -74 0
-68 -75 0
-68 -76 0
-68 -77 0
-68 -78 0
-69 -73 0
-69 -74 0
-69 -75 0
-69 -76 0
-69 -77 0
-69 -78 0
-70 -73 0
-70 -74 0
-70 -75 0
-70 -76 0
-70 -77 0
-70 -78 0
-71 -73 0
-71 -74 0
-71 -75 0
-71 -76 0
-71 -77 0
-71 -78 0
-72 -73 0
-72 -74 0
-72 -75 0
-72 -76 0
-72 -77 0
-72 -78 0
-67 -91 0
-67 -92 0
-67 -93 0
-67 -94 0
-67 -95 0
-67 -96 0
-68 -91 0
-68 -92 0
-68 -93 0
-68 -94 0
-68 -95 0
-68 -96 0
-69 -91 0
-69 -92 0
-69 -93 0
-69 -94 0
-69 -95 0
-69 -96 0
-70 -91 0
-70 -92 0
-70 -93 0
-70 -94 0
-70 -95 0
-70 -96 0
-71 -91 0
-71 -92 0
-71 -93 0
-71 -94 0
-71 -95 0
-71 -96 0
-72 -91 0
-72 -92 0
-72 -93 0
-72 -94 0
-72 -95 0
-72 -96 0
-79 -97 0
-79 -98 0
-79 -99 0
-79 -100 0
-79 -101 0
-79 -102 0
-80 -97 0
-80 -98 0
-80 -99 0
-80 -100 0
-80 -101 0
-80 -102 0
-81 -97 0
-81 -98 0
-81 -99 0
-81 -100 0
-81 -101 0
-81 -102 0
-82 -97 0
-82 -98 0
-82 -99 0
-82 -100 0
-82 -101 0
-82 -102 0
-83 -97 0
-83 -98 0
-83 -99 0
-83 -100 0
-83 -101 0
-83 -102 0
-84 -97 0
-84 -98 0
-84 -99 0
-84 -100 0
-84 -101 0
-84 -102 0
-85 -91 0
-85 -92 0
-85 -93 0
-85 -94 0
-85 -95 0
-85 -96 0
-86 -91 0
-86 -92 0
-86 -93 0
-86 -94 0
-86 -95 0
-86 -96 0
-87 -91 0
-87 -92 0
-87 -93 0
-87 -94 0
-87 -95 0
-87 -96 0
-88 -91 0
-88 -92 0
-88 -93 0
-88 -94 0
-88 -95 0
-88 -96 0
-89 -91 0
-89 -92 0
-89 -93 0
-89 -94 0
-89 -95 0
-89 -96 0
-90 -91 0
-90 -92 0
-90 -93 0
-90 -94 0
-90 -95 0
-90 -96 0
-1 -7 0
-1 -13 0
-1 -19 0
-1 -25 0
-1 -31 0
-1 -37 0
-1 -43 0
-1 -49 0
-1 -55 0
-1 -61 0
-1 -67 0
-1 -73 0
-1 -79 0
-1 -85 0
-1 -91 0
-1 -97 0
-7 -13 0
-7 -19 0
-7 -25 0
-7 -31 0
-7 -37 0
-7 -43 0
-7 -49 0
-7 -55 0
-7 -61 0
-7 -67 0
-7 -73 0
-7 -79 0
-7 -85 0
-7 -91 0
-7 -97 0
-13 -19 0
-13 -25 0
-13 -31 0
-13 -37 0
-13 -43 0
-13 -49 0
-13 -55 0
-13 -61 0
-13 -67 0
-13 -73 0
-13 -79 0
-13 -85 0
-13 -91 0
-13 -97 0
-19 -25 0
-19 -31 0
-19 -37 0
-19 -43 0
-19 -49 0
-19 -55 0
-19 -61 0
-19 -67 0
-19 -73 0
-19 -79 0
-19 -85 0
-19 -91 0
-19 -97 0
-25 -31 0
-25 -37 0
-25 -43 0
-25 -49 0
-25 -55 0
-25 -61 0
-25 -67 0
-25 -73 0
-25 -79 0
-25 -85 0
-25 -91 0
-25 -97 0
-31 -37 0
-31 -43 0
-31 -49 0
-31 -55 0
-31 -61 0
-31 -67 0
-31 -73 0
-31 -79 0
-31 -85 0
-31 -91 0
-31 -97 0
-37 -43 0
-37 -49 0
-37 -55 0
-37 -61 0
-37 -67 0
-37 -73 0
-37 -79 0
-37 -85 0
-37 -91 0
-37 -97 0
-43 -49 0
-43 -55 0
-43 -61 0
-43 -67 0
-43 -73 0
-43 -79 0
-43 -85 0
-43 -91 0
-43 -97 0
-49 -55 0
-49 -61 0
-49 -67 0
-49 -73 0
-49 -79 0
-49 -85 0
-49 -91 0
-49 -97 0
-55 -61 0
-55 -67 0
-55 -73 0
-55 -79 0
-55 -85 0
-55 -91 0
-55 -97 0
-61 -67 0
-61 -73 0
-61 -79 0
-61 -85 0
-61 -91 0
-61 -97 0
-67 -73 0
-67 -79 0
-67 -85 0
-67 -91 0
-67 -97 0
-73 -79 0
-73 -85 0
-73 -91 0
-73 -97 0
-79 -85 0
-79 -91 0
-79 -97 0
-85 -91 0
-85 -97 0
-91 -97 0
1 7 13 19 25 31 37 43 49 55 61 67 73 79 85 91 97 0
-2 -8 0
-2 -14 0
-2 -20 0
-2 -26 0
-2 -32 0
-2 -38 0
-2 -44 0
-2 -50 0
-2 -56 0
-2 -62 0
-2 -68 0
-2 -74 0
-2 -80 0
-2 -86 0
-2 -92 0
-2 -98 0
-8 -14 0
-8 -20 0
-8 -26 0
-8 -32 0
-8 -38 0
-8 -44 0
-8 -50 0
-8 -56 0
-8 -62 0
-8 -68 0
-8 -74 0
-8 -80 0
-8 -86 0
-8 -92 0
-8 -98 0
-14 -20 0
-14 -26 0
-14 -32 0
-14 -38 0
-14 -44 0
-14 -50 0
-14 -56 0
-14 -62 0
-14 -68 0
-14 -74 0
-14 -80 0
-14 -86 0
-14 -92 0
-14 -98 0
-20 -26 0
-20 -32 0
-20 -38 0
-20 -44 0
-20 -50 0
-20 -56 0
-20 -62 0
-20 -68 0
-20 -74 0
-20 -80 0
-20 -86 0
-20 -92 0
-20 -98 0
-26 -32 0
-26 -38 0
-26 -44 0
-26 -50 0
-26 -56 0
-26 -62 0
-26 -68 0
-26 -74 0
-26 -80 0
-26 -86 0
-26 -92 0
-26 -98 0
-32 -38 0
-32 -44 0
-32 -50 0
-32 -56 0
-32 -62 0
-32 -68 0
-32 -74 0
-32 -80 0
-32 -86 0
-32 -92 0
-32 -98 0
-38 -44 0
-38 -50 0
-38 -56 0
-38 -62 0
-38 -68 0
-38 -74 0
-38 -80 0
-38 -86 0
-38 -92 0
-38 -98 0
-44 -50 0
-44 -56 0
-44 -62 0
-44 -68 0
-44 -74 0
-44 -80 0
-44 -86 0
-44 -92 0
-44 -98 0
-50 -56 0
-50 -62 0
-50 -68 0
-50 -74 0
-50 -80 0
-50 -86 0
-50 -92 0
-50 -98 0
-56 -62 0
-56 -68 0
-56 -74 0
-56 -80 0
-56 -86 0
-56 -92 0
-56 -98 0
-62 -68 0
-62 -74 0
-62 -80 0
-62 -86 0
-62 -92 0
-62 -98 0
-68 -74 0
-68 -80 0
-68 -86 0
-68 -92 0
-68 -98 0
-74 -80 0
-74 -86 0
-74 -92 0
-74 -98 0
-80 -86 0
-80 -92 0
-80 -98 0
-86 -92 0
-86 -98 0
-92 -98 0
2 8 14 20 26 32 38 44 50 56 62 68 74 80 86 92 98 0
-3 -9 0
-3 -15 0
-3 -21 0
-3 -27 0
-3 -33 0
-3 -39 0
-3 -45 0
-3 -51 0
-3 -57 0
-3 -63 0
-3 -69 0
-3 -75 0
-3 -81 0
-3 -87 0
-3 -93 0
-3 -99 0
-9 -15 0
-9 -21 0
-9 -27 0
-9 -33 0
-9 -39 0
-9 -45 0
-9 -51 0
-9 -57 0
-9 -63 0
-9 -69 0
-9 -75 0
-9 -81 0
-9 -87 0
-9 -93 0
-9 -99 0
-15 -21 0
-15 -27 0
-15 -33 0
-15 -39 0
-15 -45 0
-15 -51 0
-15 -57 0
-15 -63 0
-15 -69 0
-15 -75 0
-15 -81 0
-15 -87 0
-15 -93 0
-15 -99 0
-21 -27 0
-21 -33 0
-21 -39 0
-21 -45 0
-21 -51 0
-21 -57 0
-21 -63 0
-21 -69 0
-21 -75 0
-21 -81 0
-21 -87 0
-21 -93 0
-21 -99 0
-27 -33 0
-27 -39 0
-27 -45 0
-27 -51 0
-27 -57 0
-27 -63 0
-27 -69 0
-27 -75 0
-27 -81 0
-27 -87 0
-27 -93 0
-27 -99 0
-33 -39 0
-33 -45 0
-33 -51 0
-33 -57 0
-33 -63 0
-33 -69 0
-33 -75 0
-33 -81 0
-33 -87 0
-33 -93 0
-33 -99 0
-39 -45 0
-39 -51 0
-39 -57 0
-39 -63 0
-39 -69 0
-39 -75 0
-39 -81 0
-39 -87 0
-39 -93 0
-39 -99 0
-45 -51 0
-45 -57 0
-45 -63 0
-45 -69 0
-45 -75 0
-45 -81 0
-45 -87 0
-45 -93 0
-45 -99 0
-51 -57 0
-51 -63 0
-51 -69 0
-51 -75 0
-51 -81 0
-51 -87 0
-51 -93 0
-51 -99 0
-57 -63 0
-57 -69 0
-57 -75 0
-57 -81 0
-57 -87 0
-57 -93 0
-57 -99 0
-63 -69 0
-63 -75 0
-63 -81 0
-63 -87 0
-63 -93 0
-63 -99 0
-69 -75 0
-69 -81 0
-69 -87 0
-69 -93 0
-69 -99 0
-75 -81 0
-75 -87 0
-75 -93 0
-75 -99 0
-81 -87 0
-81 -93 0
-81 -99 0
-87 -93 0
-87 -99 0
-93 -99 0
3 9 15 21 27 33 39 45 51 57 63 69 75 81 87 93 99 0
-4 -10 0
-4 -16 0
-4 -22 0
-4 -28 0
-4 -34 0
-4 -40 0
-4 -46 0
-4 -52 0
-4 -58 0
-4 -64 0
-4 -70 0
-4 -76 0
-4 -82 0
-4 -88 0
-4 -94 0
-4 -100 0
-10 -16 0
-10 -22 0
-10 -28 0
-10 -34 0
-10 -40 0
-10 -46 0
-10 -52 0
-10 -58 0
-10 -64 0
-10 -70 0
-10 -76 0
-10 -82 0
-10 -88 0
-10 -94 0
-10 -100 0
-16 -22 0
-16 -28 0
-16 -34 0
-16 -40 0
-16 -46 0
-16 -52 0
-16 -58 0
-16 -64 0
-16 -70 0
-16 -76 0
-16 -82 0
-16 -88 0
-16 -94 0
-16 -100 0
-22 -28 0
-22 -34 0
-22 -40 0
-22 -46 0
-22 -52 0
-22 -58 0
-22 -64 0
-22 -70 0
-22 -76 0
-22 -82 0
-22 -88 0
-22 -94 0
-22 -100 0
-28 -34 0
-28 -40 0
-28 -46 0
-28 -52 0
-28 -58 0
-28 -64 0
-28 -70 0
-28 -76 0
-28 -82 0
-28 -88 0
-28 -94 0
-28 -100 0
-34 -40 0
-34 -46 0
-34 -52 0
-34 -58 0
-34 -64 0
-34 -70 0
-34 -76 0
-34 -82 0
-34 -88 0
-34 -94 0
-34 -100 0
-40 -46 0
-40 -52 0
-40 -58 0
-40 -64 0
-40 -70 0
-40 -76 0
-40 -82 0
-40 -88 0
-40 -94 0
-40 -100 0
-46 -52 0
-46 -58 0
-46 -64 0
-46 -70 0
-46 -76 0
-46 -82 0
-46 -88 0
-46 -94 0
-46 -100 0
-52 -58 0
-52 -64 0
-52 -70 0
-52 -76 0
-52 -82 0
-52 -88 0
-52 -94 0
-52 -100 0
-58 -64 0
-58 -70 0
-58 -76 0
-58 -82 0
-58 -88 0
-58 -94 0
-58 -100 0
-64 -70 0
-64 -76 0
-64 -82 0
-64 -88 0
-64 -94 0
-64 -100 0
-70 -76 0
-70 -82 0
-70 -88 0
-70 -94 0
-70 -100 0
-76 -82 0
-76 -88 0
-76 -94 0
-76 -100 0
-82 -88 0
-82 -94 0
-82 -100 0
-88 -94 0
-88 -100 0
-94 -100 0
4 10 16 22 28 34 40 46 52 58 64 70 76 82 88 94 100 0
-5 -11 0
-5 -17 0
-5 -23 0
-5 -29 0
-5 -35 0
-5 -41 0
-5 -47 0
-5 -53 0
-5 -59 0
-5 -65 0
-5 -71 0
-5 -77 0
-5 -83 0
-5 -89 0
-5 -95 0
-5 -101 0
-11 -17 0
-11 -23 0
-11 -29 0
-11 -35 0
-11 -41 0
-11 -47 0
-11 -53 0
-11 -59 0
-11 -65 0
-11 -71 0
-11 -77 0
-11 -83 0
-11 -89 0
-11 -95 0
-11 -101 0
-17 -23 0
-17 -29 0
-17 -35 0
-17 -41 0
-17 -47 0
-17 -53 0
-17 -59 0
-17 -65 0
-17 -71 0
-17 -77 0
-17 -83 0
-17 -89 0
-17 -95 0
-17 -101 0
-23 -29 0
-23 -35 0
-23 -41 0
-23 -47 0
-23 -53 0
-23 -59 0
-23 -65 0
-23 -71 0
-23 -77 0
-23 -83 0
-23 -89 0
-23 -95 0
-23 -101 0
-29 -35 0
-29 -41 0
-29 -47 0
-29 -53 0
-29 -59 0
-29 -65 0
-29 -71 0
-29 -77 0
-29 -83 0
-29 -89 0
-29 -95 0
-29 -101 0
-35 -41 0
-35 -47 0
-35 -53 0
-35 -59 0
-35 -65 0
-35 -71 0
-35 -77 0
-35 -83 0
-35 -89 0
-35 -95 0
-35 -101 0
-41 -47 0
-41 -53 0
-41 -59 0
-41 -65 0
-41 -71 0
-41 -77 0
-41 -83 0
-41 -89 0
-41 -95 0
-41 -101 0
-47 -53 0
-47 -59 0
-47 -65 0
-47 -71 0
-47 -77 0
-47 -83 0
-47 -89 0
-47 -95 0
-47 -101 0
-53 -59 0
-53 -65 0
-53 -71 0
-53 -77 0
-53 -83 0
-53 -89 0
-53 -95 0
-53 -101 0
-59 -65 0
-59 -71 0
-59 -77 0
-59 -83 0
-59 -89 0
-59 -95 0
-59 -101 0
-65 -71 0
-65 -77 0
-65 -83 0
-65 -89 0
-65 -95 0
-65 -101 0
-71 -77 0
-71 -83 0
-71 -89 0
-71 -95 0
-71 -101 0
-77 -83 0
-77 -89 0
-77 -95 0
-77 -101 0
-83 -89 0
-83 -95 0
-83 -101 0
-89 -95 0
-89 -101 0
-95 -101 0
5 11 17 23 29 35 41 47 53 59 65 71 77 83 89 95 101 0
-6 -12 0
-6 -18 0
-6 -24 0
-6 -30 0
-6 -36 0
-6 -42 0
-6 -48 0
-6 -54 0
-6 -60 0
-6 -66 0
-6 -72 0
-6 -78 0
-6 -84 0
-6 -90 0
-6 -96 0
-6 -102 0
-12 -18 0
-12 -24 0
-12 -30 0
-12 -36 0
-12 -42 0
-12 -48 0
-12 -54 0
-12 -60 0
-12 -66 0
-12 -72 0
-12 -78 0
-12 -84 0
-12 -90 0
-12 -96 0
-12 -102 0
-18 -24 0
-18 -30 0
-18 -36 0
-18 -42 0
-18 -48 0
-18 -54 0
-18 -60 0
-18 -66 0
-18 -72 0
-18 -78 0
-18 -84 0
-18 -90 0
-18 -96 0
-18 -102 0
-24 -30 0
-24 -36 0
-24 -42 0
-24 -48 0
-24 -54 0
-24 -60 0
-24 -66 0
-24 -72 0
-24 -78 0
-24 -84 0
-24 -90 0
-24 -96 0
-24 -102 0
-30 -36 0
-30 -42 0
-30 -48 0
-30 -54 0
-30 -60 0
-30 -66 0
-30 -72 0
-30 -78 0
-30 -84 0
-30 -90 0
-30 -96 0
-30 -102 0
-36 -42 0
-36 -48 0
-36 -54 0
-36 -60 0
-36 -66 0
-36 -72 0
-36 -78 0
-36 -84 0
-36 -90 0
-36 -96 0
-36 -102 0
-42 -48 0
-42 -54 0
-42 -60 0
-42 -66 0
-42 -72 0
-42 -78 0
-42 -84 0
-42 -90 0
-42 -96 0
-42 -102 0
-48 -54 0
-48 -60 0
-48 -66 0
-48 -72 0
-48 -78 0
-48 -84 0
-48 -90 0
-48 -96 0
-48 -102 0
-54 -60 0
-54 -66 0
-54 -72 0
-54 -78 0
-54 -84 0
-54 -90 0
-54 -96 0
-54 -102 0
-60 -66 0
-60 -72 0
-60 -78 0
-60 -84 0
-60 -90 0
-60 -96 0
-60 -102 0
-66 -72 0
-66 -78 0
-66 -84 0
-66 -90 0
-66 -96 0
-66 -102 0
-72 -78 0
-72 -84 0
-72 -90 0
-72 -96 0
-72 -102 0
-78 -84 0
-78 -90 0
-78 -96 0
-78 -102 0
-84 -90 0
-84 -96 0
-84 -102 0
-90 -96 0
-90 -102 0
-96 -102 0
6 12 18 24 30 36 42 48 54 60 66 72 78 84 90 96 102 0
-1 -2 0
-1 -3 0
-1 -4 0
-1 -5 0
-1 -6 0
-2 -3 0
-2 -4 0
-2 -5 0
-2 -6 0
-3 -4 0
-3 -5 0
-3 -6 0
-4 -5 0
-4 -6 0
-5 -6 0
-7 -8 0
-7 -9 0
-7 -10 0
-7 -11 0
-7 -12 0
-8 -9 0
-8 -10 0
-8 -11 0
-8 -12 0
-9 -10 0
-9 -11 0
-9 -12 0
-10 -11 0
-10 -12 0
-11 -12 0
-13 -14 0
-13 -15 0
-13 -16 0
-13 -17 0
-13 -18 0
-14 -15 0
-14 -16 0
-14 -17 0
-14 -18 0
-15 -16 0
-15 -17 0
-15 -18 0
-16 -17 0
-16 -18 0
-17 -18 0
-19 -20 0
-19 -21 0
-19 -22 0
-19 -23 0
-19 -24 0
-20 -21 0
-20 -22 0
-20 -23 0
-20 -24 0
-21 -22 0
-21 -23 0
-21 -24 0
-22 -23 0
-22 -24 0
-23 -24 0
-25 -26 0
-25 -27 0
-25 -28 0
-25 -29 0
-25 -30 0
-26 -27 0
-26 -28 0
-26 -29 0
-26 -30 0
-27 -28 0
-27 -29 0
-27 -30 0
-28 -29 0
-28 -30 0
-29 -30 0
-31 -32 0
-31 -33 0
-31 -34 0
-31 -35 0
-31 -36 0
-32 -33 0
-32 -34 0
-32 -35 0
-32 -36 0
-33 -34 0
-33 -35 0
-33 -36 0
-34 -35 0
-34 -36 0
-35 -36 0
-37 -38 0
-37 -39 0
-37 -40 0
-37 -41 0
-37 -42 0
-38 -39 0
-38 -40 0
-38 -41 0
-38 -42 0
-39 -40 0
-39 -41 0
-39 -42 0
-40 -41 0
-40 -42 0
-41 -42 0
-43 -44 0
-43 -45 0
-43 -46 0
-43 -47 0
-43 -48 0
-44 -45 0
-44 -46 0
-44 -47 0
-44 -48 0
-45 -46 0
-45 -47 0
-45 -48 0
-46 -47 0
-46 -48 0
-47 -48 0
-49 -50 0
-49 -51 0
-49 -52 0
-49 -53 0
-49 -54 0
-50 -51 0
-50 -52 0
-50 -53 0
-50 -54 0
-51 -52 0
-51 -53 0
-51 -54 0
-52 -53 0
-52 -54 0
-53 -54 0
-55 -56 0
-55 -57 0
-55 -58 0
-55 -59 0
-55 -60 0
-56 -57 0
-56 -58 0
-56 -59 0
-56 -60 0
-57 -58 0
-57 -59 0
-57 -60 0
-58 -59 0
-58 -60 0
-59 -60 0
-61 -62 0
-61 -63 0
-61 -64 0
-61 -65 0
-61 -66 0
-62 -63 0
-62 -64 0
-62 -65 0
-62 -66 0
-63 -64 0
-63 -65 0
-63 -66 0
-64 -65 0
-64 -66 0
-65 -66 0
-67 -68 0
-67 -69 0
-67 -70 0
-67 -71 0
-67 -72 0
-68 -69 0
-68 -70 0
-68 -71 0
-68 -72 0
-69 -70 0
-69 -71 0
-69 -72 0
-70 -71 0
-70 -72 0
-71 -72 0
-73 -74 0
-73 -75 0
-73 -76 0
-73 -77 0
-73 -78 0
-74 -75 0
-74 -76 0
-74 -77 0
-74 -78 0
-75 -76 0
-75 -77 0
-75 -78 0
-76 -77 0
-76 -78 0
-77 -78 0
-79 -80 0
-79 -81 0
-79 -82 0
-79 -83 0
-79 -84 0
-80 -81 0
-80 -82 0
-80 -83 0
-80 -84 0
-81 -82 0
-81 -83 0
-81 -84 0
-82 -83 0
-82 -84 0
-83 -84 0
-85 -86 0
-85 -87 0
-85 -88 0
-85 -89 0
-85 -90 0
-86 -87 0
-86 -88 0
-86 -89 0
-86 -90 0
-87 -88 0
-87 -89 0
-87 -90 0
-88 -89 0
-88 -90 0
-89 -90 0
-91 -92 0
-91 -93 0
-91 -94 0
-91 -95 0
-91 -96 0
-92 -93 0
-92 -94 0
-92 -95 0
-92 -96 0
-93 -94 0
-93 -95 0
-93 -96 0
-94 -95 0
-94 -96 0
-95 -96 0
-97 -98 0
-97 -99 0
-97 -100 0
-97 -101 0
-97 -102 0
-98 -99 0
-98 -100 0
-98 -101 0
-98 -102 0
-99 -100 0
-99 -101 0
-99 -102 0
-100 -101 0
-100 -102 0
-101 -102 0
